* ENCODING=ISO-8859-1
NAME          CPLEX
ROWS
 N  obj1    
 G  c1      
 G  c2      
 G  c3      
 G  c4      
 G  c5      
 G  c6      
 G  c7      
 G  c8      
 G  c9      
 G  c10     
 G  c11     
 G  c12     
 G  c13     
 G  c14     
 G  c15     
 G  c16     
 G  c17     
 G  c18     
 G  c19     
 G  c20     
 G  c21     
 G  c22     
 G  c23     
 G  c24     
 G  c25     
 G  c26     
 G  c27     
 G  c28     
 G  c29     
 G  c30     
 G  c31     
 G  c32     
 G  c33     
 G  c34     
 G  c35     
COLUMNS
    MARK0000  'MARKER'                 'INTORG'
    x1        obj1                            1
    x1        c28                           246
    x1        c29                           273
    x1        c31                           238
    x2        obj1                            1
    x2        c7                            462
    x2        c27                           947
    x3        obj1                            1
    x3        c13                           403
    x3        c19                           514
    x3        c33                           239
    x3        c35                           282
    x4        obj1                            1
    x4        c8                            395
    x4        c14                           450
    x4        c22                           876
    x4        c32                           253
    x4        c34                           200
    x5        obj1                            1
    x5        c8                            872
    x6        obj1                            1
    x6        c4                            333
    x6        c13                           725
    x6        c17                           755
    x6        c28                           984
    x6        c32                           824
    x7        obj1                            1
    x7        c9                            603
    x7        c23                           850
    x7        c29                           900
    x7        c32                           974
    x8        obj1                            1
    x8        c1                            899
    x8        c6                            915
    x8        c13                           448
    x8        c21                           238
    x8        c25                           597
    x8        c30                           297
    x9        obj1                            1
    x9        c9                            420
    x9        c15                           680
    x9        c23                           847
    x9        c27                           354
    x9        c28                           618
    x9        c31                           683
    x9        c34                           851
    x10       obj1                            1
    x10       c5                            928
    x10       c16                           972
    x10       c23                           510
    x10       c24                           692
    x10       c33                           123
    x11       obj1                            1
    x11       c34                           905
    x12       obj1                            1
    x12       c7                            924
    x12       c18                           664
    x12       c20                           196
    x13       obj1                            1
    x13       c5                            981
    x13       c12                           446
    x13       c15                           309
    x13       c16                           608
    x13       c28                           853
    x13       c35                           937
    x14       obj1                            1
    x14       c31                           129
    x15       obj1                            1
    x15       c12                           331
    x15       c15                           760
    x15       c26                           580
    x16       obj1                            1
    x16       c23                           295
    x16       c33                           215
    x17       obj1                            1
    x17       c9                            219
    x17       c18                           225
    x18       obj1                            1
    x18       c1                            749
    x18       c3                            630
    x18       c9                            312
    x18       c20                           864
    x18       c25                           310
    x19       obj1                            1
    x19       c9                            431
    x19       c28                           204
    x20       obj1                            1
    x20       c6                            308
    x20       c9                            627
    x21       obj1                            1
    x21       c15                           512
    x21       c30                           930
    x22       obj1                            1
    x22       c20                           618
    x22       c26                           108
    x23       obj1                            1
    x23       c4                            217
    x23       c16                           566
    x23       c22                           518
    x23       c23                           842
    x24       obj1                            1
    x24       c4                            901
    x24       c9                            190
    x24       c29                           448
    x24       c31                           681
    x25       obj1                            1
    x25       c28                           405
    x26       obj1                            1
    x26       c2                            477
    x26       c8                            410
    x26       c24                           326
    x26       c25                           305
    x27       obj1                            1
    x27       c19                           698
    x28       obj1                            1
    x28       c6                            879
    x28       c11                           143
    x28       c14                           944
    x28       c23                           871
    x28       c29                           135
    x29       obj1                            1
    x29       c17                           471
    x29       c25                           890
    x29       c34                           320
    x30       obj1                            1
    x30       c11                           438
    x30       c13                           659
    x31       obj1                            1
    x31       c8                            281
    x31       c9                            590
    x31       c24                           488
    x31       c35                           537
    x32       obj1                            1
    x32       c3                            652
    x32       c5                            212
    x32       c34                           110
    x33       obj1                            1
    x33       c4                            757
    x33       c15                           797
    x33       c21                           272
    x33       c27                           107
    x33       c29                           739
    x34       obj1                            1
    x34       c10                           542
    x34       c16                           288
    x34       c34                           106
    x35       obj1                            1
    x35       c3                            753
    x35       c12                           330
    x35       c15                           389
    x35       c27                           425
    x36       obj1                            1
    x36       c6                            348
    x36       c17                           679
    x37       obj1                            1
    x37       c8                            785
    x37       c13                           660
    x37       c21                           468
    x37       c29                           547
    x37       c30                           457
    x38       obj1                            1
    x38       c29                           859
    x38       c30                           424
    x38       c33                           900
    x39       obj1                            1
    x39       c22                           870
    x39       c35                           769
    x40       obj1                            1
    x40       c12                           659
    x40       c18                           475
    x41       obj1                            1
    x41       c7                            694
    x41       c16                           127
    x41       c30                           302
    x42       obj1                            1
    x42       c4                            376
    x42       c5                            882
    x42       c24                           647
    x42       c26                           880
    x43       obj1                            1
    x43       c16                           829
    x43       c31                           630
    x43       c33                           201
    x44       obj1                            1
    x44       c19                           729
    x44       c32                           372
    x45       obj1                            1
    x45       c2                            451
    x45       c13                           677
    x45       c14                           675
    x45       c15                           919
    x45       c22                           446
    x45       c34                           977
    x46       obj1                            1
    x46       c7                            166
    x46       c17                           723
    x46       c24                           591
    x46       c34                           438
    x47       obj1                            1
    x47       c19                           403
    x47       c27                           692
    x47       c28                           408
    x47       c33                           793
    x48       obj1                            1
    x48       c4                            359
    x49       obj1                            1
    x49       c4                            369
    x50       obj1                            1
    x50       c1                            469
    x50       c25                           367
    x50       c32                           635
    x51       obj1                            1
    x51       c1                            698
    x51       c4                            433
    x51       c6                            313
    x51       c22                           785
    x52       obj1                            1
    x52       c8                            148
    x52       c13                           572
    x52       c23                           498
    x53       obj1                            1
    x53       c16                           274
    x53       c25                           282
    x54       obj1                            1
    x54       c17                           415
    x54       c28                           515
    x54       c31                           712
    x55       obj1                            1
    x55       c8                            964
    x55       c10                           666
    x55       c14                           681
    x55       c21                           918
    x55       c30                           557
    x56       obj1                            1
    x56       c6                            630
    x56       c8                            672
    x56       c25                           463
    x57       obj1                            1
    x57       c19                           152
    x58       obj1                            1
    x58       c15                           122
    x58       c16                           533
    x58       c24                           479
    x59       obj1                            1
    x59       c12                           715
    x60       obj1                            1
    x60       c1                            114
    x60       c4                            260
    x60       c6                            425
    x60       c13                           404
    x61       obj1                            1
    x61       c4                            120
    x61       c11                           582
    x61       c27                           764
    x61       c33                           998
    x62       obj1                            1
    x62       c10                           793
    x62       c15                           509
    x62       c17                           730
    x62       c20                           487
    x62       c23                           980
    x62       c26                           529
    x62       c28                           982
    x62       c30                           887
    x63       obj1                            1
    x63       c3                            978
    x63       c10                           918
    x63       c17                           810
    x63       c27                           202
    x64       obj1                            1
    x64       c9                            673
    x64       c10                           372
    x64       c11                           212
    x64       c13                           318
    x65       obj1                            1
    x65       c25                           899
    x65       c27                           267
    x66       obj1                            1
    x66       c18                           117
    x66       c22                           850
    x66       c27                           282
    x67       obj1                            1
    x67       c2                            812
    x67       c14                           895
    x68       obj1                            1
    x68       c22                           892
    x68       c25                           463
    x68       c32                           810
    x69       obj1                            1
    x69       c15                           823
    x69       c31                           297
    x69       c34                           647
    x70       obj1                            1
    x70       c2                            293
    x70       c5                            827
    x70       c29                           467
    MARK0001  'MARKER'                 'INTEND'
RHS
    rhs       c1                           1465
    rhs       c2                           1017
    rhs       c3                           1507
    rhs       c4                           2063
    rhs       c5                           1915
    rhs       c6                           1909
    rhs       c7                           1123
    rhs       c8                           2264
    rhs       c9                           2033
    rhs       c10                          1646
    rhs       c11                           688
    rhs       c12                          1241
    rhs       c13                          2433
    rhs       c14                          1823
    rhs       c15                          2910
    rhs       c16                          2099
    rhs       c17                          2292
    rhs       c18                           741
    rhs       c19                          1248
    rhs       c20                          1083
    rhs       c21                           948
    rhs       c22                          2619
    rhs       c23                          2847
    rhs       c24                          1612
    rhs       c25                          2288
    rhs       c26                          1049
    rhs       c27                          2020
    rhs       c28                          2608
    rhs       c29                          2184
    rhs       c30                          1927
    rhs       c31                          1685
    rhs       c32                          1934
    rhs       c33                          1735
    rhs       c34                          2277
    rhs       c35                          1263
BOUNDS
 LI bnd       x1        0
 LI bnd       x2        0
 LI bnd       x3        0
 LI bnd       x4        0
 LI bnd       x5        0
 LI bnd       x6        0
 LI bnd       x7        0
 LI bnd       x8        0
 LI bnd       x9        0
 LI bnd       x10       0
 LI bnd       x11       0
 LI bnd       x12       0
 LI bnd       x13       0
 LI bnd       x14       0
 LI bnd       x15       0
 LI bnd       x16       0
 LI bnd       x17       0
 LI bnd       x18       0
 LI bnd       x19       0
 LI bnd       x20       0
 LI bnd       x21       0
 LI bnd       x22       0
 LI bnd       x23       0
 LI bnd       x24       0
 LI bnd       x25       0
 LI bnd       x26       0
 LI bnd       x27       0
 LI bnd       x28       0
 LI bnd       x29       0
 LI bnd       x30       0
 LI bnd       x31       0
 LI bnd       x32       0
 LI bnd       x33       0
 LI bnd       x34       0
 LI bnd       x35       0
 LI bnd       x36       0
 LI bnd       x37       0
 LI bnd       x38       0
 LI bnd       x39       0
 LI bnd       x40       0
 LI bnd       x41       0
 LI bnd       x42       0
 LI bnd       x43       0
 LI bnd       x44       0
 LI bnd       x45       0
 LI bnd       x46       0
 LI bnd       x47       0
 LI bnd       x48       0
 LI bnd       x49       0
 LI bnd       x50       0
 LI bnd       x51       0
 LI bnd       x52       0
 LI bnd       x53       0
 LI bnd       x54       0
 LI bnd       x55       0
 LI bnd       x56       0
 LI bnd       x57       0
 LI bnd       x58       0
 LI bnd       x59       0
 LI bnd       x60       0
 LI bnd       x61       0
 LI bnd       x62       0
 LI bnd       x63       0
 LI bnd       x64       0
 LI bnd       x65       0
 LI bnd       x66       0
 LI bnd       x67       0
 LI bnd       x68       0
 LI bnd       x69       0
 LI bnd       x70       0
ENDATA
